Route #1: 67 3 143 76 54 18 80 105 104 12 57 77 111 13 122 1 5
Route #2: 42 87 144 36 101 27 108 139 23 154 60 132 113 71 121 79 44
Route #3: 28 32 29 109 2 37 84 146 51 10 72 53 112 59 95 130
Route #4: 86 82 120 16 39 11 141 70 24 133 31 40 100 50 19 142 102 103
Route #5: 99 98 135 81 45 150 164 34 65 110 124 152 131 4 151 38 63
Route #6: 62 128 85 156 115 153 116 148 97 41 74 33 78 165 26 35 123
Route #7: 106 166 90 161 91 49 64 107 129 114 136 88 163 145 8 147 117 43
Route #8: 6 157 9 162 138 66 20 94 61 127 56 155 58 126 47 118 137 7 89
Route #9: 83 22 69 48 93 25 73 52 68 14 96 17 159 15 92 30 46 140
Route #10: 134 125 75 158 160 21 149 55 119
Cost 23417
